1600 3120
1 2 4
1 41 4
2 3 4
2 42 1
3 4 1
3 43 1
4 5 2
4 44 3
5 6 1
5 45 2
6 7 1
6 46 2
7 8 2
7 47 3
8 9 4
8 48 1
9 10 5
9 49 3
10 11 2
10 50 5
11 12 1
11 51 2
12 13 5
12 52 4
13 14 5
13 53 1
14 15 5
14 54 3
15 16 2
15 55 4
16 17 4
16 56 5
17 18 3
17 57 2
18 19 4
18 58 5
19 20 5
19 59 3
20 21 2
20 60 4
21 22 2
21 61 2
22 23 3
22 62 1
23 24 1
23 63 3
24 25 5
24 64 1
25 26 5
25 65 3
26 27 3
26 66 5
27 28 2
27 67 5
28 29 1
28 68 1
29 30 4
29 69 3
30 31 5
30 70 2
31 32 1
31 71 3
32 33 3
32 72 2
33 34 3
33 73 2
34 35 2
34 74 2
35 36 4
35 75 4
36 37 4
36 76 4
37 38 3
37 77 3
38 39 5
38 78 2
39 40 1
39 79 4
40 80 3
41 42 3
41 81 1
42 43 1
42 82 1
43 44 4
43 83 3
44 45 3
44 84 4
45 46 2
45 85 3
46 47 3
46 86 3
47 48 3
47 87 5
48 49 2
48 88 5
49 50 1
49 89 5
50 51 4
50 90 4
51 52 4
51 91 1
52 53 2
52 92 1
53 54 5
53 93 5
54 55 1
54 94 3
55 56 2
55 95 5
56 57 1
56 96 4
57 58 4
57 97 4
58 59 2
58 98 1
59 60 5
59 99 4
60 61 4
60 100 2
61 62 5
61 101 5
62 63 5
62 102 3
63 64 2
63 103 2
64 65 4
64 104 4
65 66 2
65 105 1
66 67 4
66 106 1
67 68 1
67 107 4
68 69 2
68 108 5
69 70 1
69 109 2
70 71 5
70 110 1
71 72 3
71 111 3
72 73 4
72 112 1
73 74 3
73 113 4
74 75 5
74 114 5
75 76 3
75 115 1
76 77 1
76 116 5
77 78 2
77 117 3
78 79 3
78 118 5
79 80 5
79 119 1
80 120 2
81 82 3
81 121 1
82 83 4
82 122 5
83 84 5
83 123 3
84 85 5
84 124 3
85 86 2
85 125 1
86 87 1
86 126 2
87 88 2
87 127 4
88 89 2
88 128 3
89 90 3
89 129 2
90 91 1
90 130 4
91 92 4
91 131 2
92 93 5
92 132 2
93 94 5
93 133 2
94 95 5
94 134 1
95 96 4
95 135 5
96 97 2
96 136 2
97 98 5
97 137 3
98 99 4
98 138 2
99 100 2
99 139 5
100 101 2
100 140 2
101 102 2
101 141 5
102 103 1
102 142 3
103 104 3
103 143 2
104 105 2
104 144 3
105 106 1
105 145 4
106 107 4
106 146 1
107 108 5
107 147 1
108 109 4
108 148 1
109 110 5
109 149 3
110 111 5
110 150 2
111 112 5
111 151 2
112 113 3
112 152 1
113 114 4
113 153 3
114 115 5
114 154 3
115 116 2
115 155 4
116 117 3
116 156 4
117 118 4
117 157 5
118 119 4
118 158 4
119 120 5
119 159 3
120 160 4
121 122 5
121 161 4
122 123 1
122 162 1
123 124 3
123 163 5
124 125 1
124 164 4
125 126 2
125 165 5
126 127 3
126 166 1
127 128 5
127 167 4
128 129 4
128 168 1
129 130 2
129 169 4
130 131 1
130 170 2
131 132 1
131 171 5
132 133 2
132 172 5
133 134 4
133 173 2
134 135 5
134 174 2
135 136 3
135 175 5
136 137 3
136 176 4
137 138 2
137 177 5
138 139 4
138 178 4
139 140 5
139 179 3
140 141 3
140 180 3
141 142 2
141 181 3
142 143 4
142 182 1
143 144 2
143 183 3
144 145 4
144 184 2
145 146 4
145 185 2
146 147 3
146 186 3
147 148 4
147 187 5
148 149 4
148 188 2
149 150 1
149 189 1
150 151 3
150 190 4
151 152 5
151 191 1
152 153 2
152 192 3
153 154 3
153 193 5
154 155 4
154 194 1
155 156 5
155 195 1
156 157 1
156 196 4
157 158 3
157 197 1
158 159 1
158 198 3
159 160 1
159 199 3
160 200 1
161 162 1
161 201 1
162 163 5
162 202 2
163 164 3
163 203 3
164 165 4
164 204 1
165 166 2
165 205 3
166 167 3
166 206 5
167 168 5
167 207 5
168 169 3
168 208 5
169 170 5
169 209 3
170 171 4
170 210 2
171 172 1
171 211 4
172 173 3
172 212 3
173 174 5
173 213 2
174 175 5
174 214 3
175 176 2
175 215 3
176 177 4
176 216 5
177 178 4
177 217 2
178 179 3
178 218 5
179 180 1
179 219 1
180 181 3
180 220 1
181 182 1
181 221 4
182 183 1
182 222 1
183 184 5
183 223 1
184 185 5
184 224 5
185 186 4
185 225 5
186 187 1
186 226 2
187 188 2
187 227 4
188 189 1
188 228 2
189 190 1
189 229 3
190 191 1
190 230 2
191 192 1
191 231 1
192 193 4
192 232 3
193 194 1
193 233 1
194 195 2
194 234 5
195 196 2
195 235 5
196 197 3
196 236 1
197 198 5
197 237 2
198 199 1
198 238 3
199 200 1
199 239 2
200 240 3
201 202 1
201 241 5
202 203 5
202 242 2
203 204 4
203 243 5
204 205 2
204 244 4
205 206 1
205 245 2
206 207 1
206 246 1
207 208 5
207 247 4
208 209 2
208 248 1
209 210 2
209 249 4
210 211 3
210 250 1
211 212 4
211 251 3
212 213 1
212 252 2
213 214 4
213 253 4
214 215 4
214 254 3
215 216 1
215 255 5
216 217 2
216 256 4
217 218 1
217 257 1
218 219 1
218 258 2
219 220 4
219 259 3
220 221 3
220 260 5
221 222 5
221 261 1
222 223 4
222 262 2
223 224 4
223 263 3
224 225 4
224 264 5
225 226 4
225 265 2
226 227 1
226 266 3
227 228 2
227 267 5
228 229 1
228 268 1
229 230 2
229 269 1
230 231 2
230 270 2
231 232 2
231 271 5
232 233 2
232 272 5
233 234 1
233 273 3
234 235 5
234 274 1
235 236 3
235 275 4
236 237 1
236 276 1
237 238 5
237 277 5
238 239 5
238 278 2
239 240 2
239 279 1
240 280 1
241 242 2
241 281 3
242 243 3
242 282 4
243 244 1
243 283 2
244 245 3
244 284 4
245 246 5
245 285 3
246 247 4
246 286 5
247 248 2
247 287 2
248 249 3
248 288 5
249 250 4
249 289 5
250 251 2
250 290 2
251 252 2
251 291 2
252 253 5
252 292 5
253 254 3
253 293 1
254 255 2
254 294 5
255 256 4
255 295 2
256 257 5
256 296 2
257 258 3
257 297 4
258 259 3
258 298 3
259 260 5
259 299 2
260 261 2
260 300 4
261 262 5
261 301 5
262 263 5
262 302 3
263 264 3
263 303 4
264 265 1
264 304 3
265 266 4
265 305 5
266 267 4
266 306 4
267 268 1
267 307 1
268 269 1
268 308 1
269 270 4
269 309 4
270 271 2
270 310 2
271 272 1
271 311 3
272 273 3
272 312 3
273 274 1
273 313 2
274 275 4
274 314 1
275 276 3
275 315 1
276 277 3
276 316 4
277 278 5
277 317 1
278 279 2
278 318 2
279 280 2
279 319 5
280 320 2
281 282 4
281 321 1
282 283 4
282 322 4
283 284 4
283 323 1
284 285 3
284 324 3
285 286 1
285 325 1
286 287 3
286 326 1
287 288 3
287 327 4
288 289 5
288 328 1
289 290 1
289 329 3
290 291 1
290 330 3
291 292 1
291 331 1
292 293 3
292 332 1
293 294 5
293 333 3
294 295 2
294 334 5
295 296 2
295 335 3
296 297 5
296 336 4
297 298 3
297 337 1
298 299 1
298 338 5
299 300 1
299 339 2
300 301 3
300 340 4
301 302 5
301 341 2
302 303 5
302 342 3
303 304 3
303 343 5
304 305 3
304 344 5
305 306 4
305 345 4
306 307 3
306 346 5
307 308 4
307 347 1
308 309 2
308 348 3
309 310 1
309 349 3
310 311 5
310 350 3
311 312 4
311 351 4
312 313 1
312 352 2
313 314 5
313 353 5
314 315 2
314 354 1
315 316 4
315 355 4
316 317 3
316 356 4
317 318 2
317 357 3
318 319 2
318 358 1
319 320 3
319 359 2
320 360 3
321 322 4
321 361 5
322 323 3
322 362 4
323 324 5
323 363 1
324 325 4
324 364 2
325 326 4
325 365 1
326 327 5
326 366 4
327 328 4
327 367 1
328 329 5
328 368 3
329 330 4
329 369 4
330 331 5
330 370 3
331 332 3
331 371 3
332 333 3
332 372 2
333 334 5
333 373 5
334 335 1
334 374 1
335 336 5
335 375 4
336 337 1
336 376 5
337 338 4
337 377 2
338 339 3
338 378 4
339 340 2
339 379 5
340 341 2
340 380 1
341 342 3
341 381 3
342 343 1
342 382 2
343 344 3
343 383 4
344 345 1
344 384 3
345 346 3
345 385 3
346 347 1
346 386 3
347 348 2
347 387 1
348 349 3
348 388 1
349 350 3
349 389 4
350 351 1
350 390 5
351 352 1
351 391 5
352 353 3
352 392 2
353 354 4
353 393 4
354 355 3
354 394 4
355 356 1
355 395 5
356 357 3
356 396 5
357 358 3
357 397 2
358 359 1
358 398 3
359 360 1
359 399 4
360 400 1
361 362 1
361 401 5
362 363 2
362 402 3
363 364 4
363 403 2
364 365 4
364 404 5
365 366 4
365 405 3
366 367 1
366 406 1
367 368 5
367 407 2
368 369 5
368 408 3
369 370 1
369 409 3
370 371 3
370 410 2
371 372 1
371 411 3
372 373 4
372 412 4
373 374 4
373 413 5
374 375 2
374 414 4
375 376 5
375 415 1
376 377 4
376 416 2
377 378 5
377 417 1
378 379 4
378 418 4
379 380 2
379 419 3
380 381 1
380 420 1
381 382 2
381 421 5
382 383 1
382 422 5
383 384 5
383 423 2
384 385 4
384 424 4
385 386 4
385 425 2
386 387 4
386 426 4
387 388 2
387 427 3
388 389 1
388 428 1
389 390 1
389 429 2
390 391 2
390 430 3
391 392 5
391 431 5
392 393 3
392 432 4
393 394 1
393 433 3
394 395 5
394 434 5
395 396 5
395 435 2
396 397 2
396 436 4
397 398 4
397 437 1
398 399 1
398 438 1
399 400 1
399 439 5
400 440 3
401 402 2
401 441 5
402 403 2
402 442 4
403 404 1
403 443 2
404 405 1
404 444 3
405 406 2
405 445 2
406 407 4
406 446 3
407 408 3
407 447 2
408 409 2
408 448 3
409 410 2
409 449 4
410 411 1
410 450 5
411 412 2
411 451 2
412 413 4
412 452 2
413 414 1
413 453 2
414 415 5
414 454 4
415 416 1
415 455 1
416 417 1
416 456 1
417 418 2
417 457 3
418 419 4
418 458 2
419 420 3
419 459 1
420 421 5
420 460 2
421 422 3
421 461 2
422 423 4
422 462 3
423 424 2
423 463 4
424 425 3
424 464 3
425 426 4
425 465 5
426 427 2
426 466 5
427 428 2
427 467 3
428 429 2
428 468 5
429 430 4
429 469 2
430 431 2
430 470 1
431 432 4
431 471 4
432 433 1
432 472 5
433 434 4
433 473 4
434 435 3
434 474 5
435 436 4
435 475 2
436 437 3
436 476 5
437 438 4
437 477 1
438 439 4
438 478 4
439 440 2
439 479 2
440 480 2
441 442 4
441 481 3
442 443 2
442 482 4
443 444 2
443 483 4
444 445 1
444 484 5
445 446 2
445 485 2
446 447 5
446 486 2
447 448 2
447 487 5
448 449 3
448 488 5
449 450 5
449 489 1
450 451 4
450 490 5
451 452 3
451 491 4
452 453 5
452 492 5
453 454 1
453 493 2
454 455 5
454 494 5
455 456 4
455 495 4
456 457 1
456 496 5
457 458 2
457 497 1
458 459 1
458 498 4
459 460 4
459 499 4
460 461 1
460 500 1
461 462 4
461 501 2
462 463 1
462 502 2
463 464 4
463 503 1
464 465 1
464 504 3
465 466 3
465 505 3
466 467 1
466 506 3
467 468 1
467 507 4
468 469 2
468 508 1
469 470 2
469 509 5
470 471 5
470 510 3
471 472 1
471 511 1
472 473 3
472 512 5
473 474 2
473 513 2
474 475 1
474 514 5
475 476 2
475 515 1
476 477 3
476 516 2
477 478 3
477 517 5
478 479 5
478 518 3
479 480 5
479 519 5
480 520 3
481 482 4
481 521 5
482 483 5
482 522 3
483 484 4
483 523 5
484 485 3
484 524 4
485 486 1
485 525 2
486 487 5
486 526 1
487 488 5
487 527 1
488 489 4
488 528 3
489 490 5
489 529 1
490 491 3
490 530 2
491 492 3
491 531 5
492 493 1
492 532 5
493 494 2
493 533 5
494 495 3
494 534 4
495 496 2
495 535 4
496 497 5
496 536 3
497 498 3
497 537 3
498 499 4
498 538 3
499 500 5
499 539 1
500 501 2
500 540 3
501 502 3
501 541 3
502 503 5
502 542 4
503 504 4
503 543 3
504 505 1
504 544 4
505 506 1
505 545 2
506 507 4
506 546 3
507 508 5
507 547 3
508 509 2
508 548 1
509 510 4
509 549 4
510 511 1
510 550 5
511 512 3
511 551 3
512 513 1
512 552 2
513 514 5
513 553 1
514 515 1
514 554 2
515 516 3
515 555 3
516 517 3
516 556 3
517 518 1
517 557 4
518 519 1
518 558 5
519 520 3
519 559 1
520 560 1
521 522 2
521 561 1
522 523 1
522 562 2
523 524 2
523 563 3
524 525 2
524 564 2
525 526 4
525 565 1
526 527 3
526 566 3
527 528 3
527 567 5
528 529 3
528 568 1
529 530 1
529 569 1
530 531 3
530 570 2
531 532 5
531 571 1
532 533 5
532 572 5
533 534 3
533 573 1
534 535 2
534 574 2
535 536 3
535 575 1
536 537 2
536 576 3
537 538 5
537 577 5
538 539 5
538 578 3
539 540 5
539 579 2
540 541 2
540 580 5
541 542 1
541 581 4
542 543 4
542 582 2
543 544 2
543 583 4
544 545 2
544 584 5
545 546 4
545 585 4
546 547 1
546 586 5
547 548 4
547 587 4
548 549 2
548 588 2
549 550 4
549 589 5
550 551 2
550 590 4
551 552 2
551 591 2
552 553 4
552 592 1
553 554 1
553 593 2
554 555 2
554 594 2
555 556 2
555 595 5
556 557 5
556 596 3
557 558 4
557 597 5
558 559 1
558 598 3
559 560 1
559 599 2
560 600 4
561 562 5
561 601 4
562 563 4
562 602 1
563 564 5
563 603 4
564 565 2
564 604 3
565 566 3
565 605 5
566 567 2
566 606 5
567 568 1
567 607 5
568 569 2
568 608 3
569 570 3
569 609 5
570 571 3
570 610 5
571 572 2
571 611 3
572 573 3
572 612 3
573 574 4
573 613 1
574 575 1
574 614 1
575 576 5
575 615 4
576 577 5
576 616 5
577 578 1
577 617 2
578 579 2
578 618 5
579 580 5
579 619 1
580 581 1
580 620 5
581 582 2
581 621 5
582 583 2
582 622 4
583 584 2
583 623 3
584 585 2
584 624 1
585 586 3
585 625 4
586 587 1
586 626 2
587 588 4
587 627 3
588 589 3
588 628 2
589 590 1
589 629 2
590 591 2
590 630 1
591 592 2
591 631 3
592 593 2
592 632 5
593 594 3
593 633 3
594 595 3
594 634 3
595 596 5
595 635 3
596 597 1
596 636 4
597 598 4
597 637 3
598 599 3
598 638 2
599 600 4
599 639 2
600 640 3
601 602 5
601 641 3
602 603 4
602 642 2
603 604 3
603 643 1
604 605 4
604 644 4
605 606 2
605 645 2
606 607 3
606 646 1
607 608 1
607 647 4
608 609 2
608 648 1
609 610 1
609 649 3
610 611 5
610 650 2
611 612 1
611 651 2
612 613 4
612 652 3
613 614 1
613 653 2
614 615 4
614 654 5
615 616 2
615 655 3
616 617 2
616 656 3
617 618 4
617 657 3
618 619 4
618 658 1
619 620 3
619 659 4
620 621 2
620 660 4
621 622 2
621 661 2
622 623 2
622 662 5
623 624 4
623 663 4
624 625 2
624 664 1
625 626 1
625 665 5
626 627 1
626 666 3
627 628 3
627 667 3
628 629 2
628 668 5
629 630 3
629 669 1
630 631 3
630 670 4
631 632 1
631 671 5
632 633 4
632 672 2
633 634 3
633 673 3
634 635 5
634 674 3
635 636 1
635 675 2
636 637 3
636 676 4
637 638 1
637 677 3
638 639 4
638 678 5
639 640 1
639 679 4
640 680 4
641 642 4
641 681 2
642 643 4
642 682 2
643 644 2
643 683 2
644 645 2
644 684 3
645 646 1
645 685 5
646 647 3
646 686 3
647 648 1
647 687 1
648 649 3
648 688 2
649 650 4
649 689 3
650 651 5
650 690 5
651 652 1
651 691 1
652 653 5
652 692 5
653 654 3
653 693 2
654 655 5
654 694 5
655 656 1
655 695 5
656 657 3
656 696 2
657 658 5
657 697 5
658 659 4
658 698 5
659 660 1
659 699 4
660 661 4
660 700 2
661 662 5
661 701 2
662 663 1
662 702 2
663 664 2
663 703 4
664 665 3
664 704 4
665 666 4
665 705 4
666 667 4
666 706 2
667 668 3
667 707 1
668 669 3
668 708 1
669 670 1
669 709 5
670 671 3
670 710 5
671 672 4
671 711 3
672 673 1
672 712 4
673 674 3
673 713 1
674 675 2
674 714 2
675 676 3
675 715 4
676 677 4
676 716 4
677 678 1
677 717 3
678 679 4
678 718 4
679 680 5
679 719 3
680 720 3
681 682 4
681 721 3
682 683 2
682 722 1
683 684 1
683 723 5
684 685 5
684 724 5
685 686 2
685 725 5
686 687 4
686 726 5
687 688 5
687 727 3
688 689 4
688 728 3
689 690 5
689 729 5
690 691 4
690 730 1
691 692 3
691 731 2
692 693 2
692 732 1
693 694 3
693 733 4
694 695 5
694 734 5
695 696 3
695 735 2
696 697 2
696 736 5
697 698 4
697 737 3
698 699 1
698 738 2
699 700 4
699 739 1
700 701 1
700 740 2
701 702 5
701 741 3
702 703 4
702 742 5
703 704 3
703 743 1
704 705 3
704 744 4
705 706 2
705 745 3
706 707 3
706 746 1
707 708 1
707 747 5
708 709 3
708 748 1
709 710 2
709 749 3
710 711 4
710 750 1
711 712 4
711 751 4
712 713 5
712 752 4
713 714 1
713 753 3
714 715 5
714 754 3
715 716 4
715 755 3
716 717 5
716 756 4
717 718 3
717 757 2
718 719 3
718 758 1
719 720 4
719 759 5
720 760 2
721 722 5
721 761 5
722 723 2
722 762 2
723 724 2
723 763 5
724 725 5
724 764 1
725 726 1
725 765 1
726 727 4
726 766 1
727 728 5
727 767 4
728 729 2
728 768 4
729 730 5
729 769 5
730 731 4
730 770 1
731 732 2
731 771 1
732 733 2
732 772 4
733 734 4
733 773 2
734 735 1
734 774 5
735 736 5
735 775 3
736 737 5
736 776 1
737 738 4
737 777 3
738 739 1
738 778 4
739 740 4
739 779 3
740 741 5
740 780 2
741 742 4
741 781 4
742 743 1
742 782 5
743 744 1
743 783 2
744 745 3
744 784 1
745 746 3
745 785 3
746 747 3
746 786 4
747 748 3
747 787 1
748 749 3
748 788 2
749 750 3
749 789 5
750 751 3
750 790 4
751 752 4
751 791 5
752 753 4
752 792 1
753 754 5
753 793 2
754 755 1
754 794 4
755 756 4
755 795 4
756 757 1
756 796 3
757 758 1
757 797 5
758 759 5
758 798 3
759 760 3
759 799 4
760 800 1
761 762 1
761 801 5
762 763 2
762 802 4
763 764 4
763 803 3
764 765 4
764 804 2
765 766 5
765 805 4
766 767 2
766 806 4
767 768 1
767 807 4
768 769 1
768 808 5
769 770 2
769 809 3
770 771 2
770 810 2
771 772 5
771 811 2
772 773 3
772 812 2
773 774 5
773 813 4
774 775 4
774 814 1
775 776 5
775 815 4
776 777 3
776 816 5
777 778 4
777 817 2
778 779 1
778 818 4
779 780 1
779 819 1
780 781 4
780 820 1
781 782 2
781 821 4
782 783 2
782 822 3
783 784 4
783 823 3
784 785 5
784 824 1
785 786 2
785 825 3
786 787 3
786 826 3
787 788 5
787 827 1
788 789 3
788 828 4
789 790 1
789 829 5
790 791 1
790 830 1
791 792 5
791 831 5
792 793 2
792 832 2
793 794 4
793 833 2
794 795 3
794 834 5
795 796 2
795 835 4
796 797 1
796 836 2
797 798 2
797 837 4
798 799 3
798 838 2
799 800 5
799 839 3
800 840 5
801 802 3
801 841 4
802 803 1
802 842 4
803 804 3
803 843 1
804 805 1
804 844 1
805 806 2
805 845 5
806 807 2
806 846 5
807 808 5
807 847 2
808 809 2
808 848 1
809 810 1
809 849 2
810 811 3
810 850 4
811 812 4
811 851 4
812 813 3
812 852 4
813 814 1
813 853 3
814 815 3
814 854 5
815 816 1
815 855 5
816 817 3
816 856 2
817 818 2
817 857 5
818 819 2
818 858 3
819 820 5
819 859 1
820 821 2
820 860 5
821 822 1
821 861 2
822 823 4
822 862 5
823 824 2
823 863 5
824 825 2
824 864 4
825 826 4
825 865 5
826 827 2
826 866 1
827 828 5
827 867 4
828 829 3
828 868 3
829 830 1
829 869 2
830 831 3
830 870 1
831 832 2
831 871 4
832 833 5
832 872 1
833 834 1
833 873 1
834 835 2
834 874 3
835 836 4
835 875 1
836 837 1
836 876 4
837 838 4
837 877 4
838 839 5
838 878 1
839 840 4
839 879 5
840 880 2
841 842 5
841 881 2
842 843 5
842 882 4
843 844 1
843 883 4
844 845 3
844 884 4
845 846 1
845 885 3
846 847 3
846 886 2
847 848 5
847 887 5
848 849 2
848 888 5
849 850 1
849 889 5
850 851 4
850 890 4
851 852 4
851 891 4
852 853 5
852 892 5
853 854 1
853 893 4
854 855 4
854 894 3
855 856 1
855 895 4
856 857 5
856 896 5
857 858 3
857 897 4
858 859 2
858 898 2
859 860 4
859 899 4
860 861 5
860 900 5
861 862 4
861 901 4
862 863 1
862 902 4
863 864 1
863 903 2
864 865 2
864 904 3
865 866 3
865 905 2
866 867 1
866 906 5
867 868 5
867 907 5
868 869 2
868 908 2
869 870 4
869 909 4
870 871 5
870 910 3
871 872 5
871 911 4
872 873 5
872 912 2
873 874 5
873 913 5
874 875 5
874 914 3
875 876 2
875 915 2
876 877 5
876 916 5
877 878 4
877 917 2
878 879 4
878 918 3
879 880 1
879 919 2
880 920 3
881 882 2
881 921 5
882 883 4
882 922 3
883 884 5
883 923 4
884 885 2
884 924 5
885 886 4
885 925 4
886 887 5
886 926 5
887 888 1
887 927 5
888 889 2
888 928 3
889 890 4
889 929 4
890 891 3
890 930 2
891 892 4
891 931 1
892 893 4
892 932 5
893 894 5
893 933 3
894 895 2
894 934 4
895 896 3
895 935 4
896 897 2
896 936 5
897 898 4
897 937 4
898 899 4
898 938 2
899 900 4
899 939 3
900 901 5
900 940 4
901 902 5
901 941 1
902 903 2
902 942 1
903 904 1
903 943 1
904 905 4
904 944 1
905 906 2
905 945 3
906 907 1
906 946 4
907 908 3
907 947 5
908 909 2
908 948 4
909 910 3
909 949 1
910 911 1
910 950 1
911 912 3
911 951 5
912 913 1
912 952 3
913 914 4
913 953 3
914 915 5
914 954 5
915 916 3
915 955 4
916 917 4
916 956 3
917 918 3
917 957 3
918 919 5
918 958 2
919 920 4
919 959 2
920 960 4
921 922 5
921 961 3
922 923 2
922 962 3
923 924 2
923 963 2
924 925 3
924 964 3
925 926 5
925 965 1
926 927 2
926 966 1
927 928 4
927 967 5
928 929 4
928 968 4
929 930 4
929 969 3
930 931 4
930 970 4
931 932 2
931 971 3
932 933 4
932 972 3
933 934 3
933 973 4
934 935 3
934 974 4
935 936 2
935 975 2
936 937 1
936 976 1
937 938 3
937 977 5
938 939 5
938 978 2
939 940 4
939 979 1
940 941 1
940 980 2
941 942 1
941 981 1
942 943 5
942 982 1
943 944 1
943 983 2
944 945 4
944 984 4
945 946 1
945 985 2
946 947 1
946 986 1
947 948 3
947 987 4
948 949 4
948 988 1
949 950 1
949 989 5
950 951 4
950 990 5
951 952 2
951 991 4
952 953 2
952 992 4
953 954 4
953 993 2
954 955 2
954 994 5
955 956 3
955 995 1
956 957 1
956 996 2
957 958 5
957 997 3
958 959 3
958 998 1
959 960 1
959 999 3
960 1000 1
961 962 2
961 1001 4
962 963 3
962 1002 4
963 964 2
963 1003 5
964 965 1
964 1004 4
965 966 5
965 1005 2
966 967 5
966 1006 5
967 968 1
967 1007 1
968 969 3
968 1008 1
969 970 1
969 1009 4
970 971 3
970 1010 4
971 972 5
971 1011 3
972 973 3
972 1012 1
973 974 4
973 1013 2
974 975 4
974 1014 3
975 976 5
975 1015 5
976 977 3
976 1016 3
977 978 3
977 1017 1
978 979 5
978 1018 2
979 980 2
979 1019 2
980 981 4
980 1020 2
981 982 4
981 1021 1
982 983 2
982 1022 3
983 984 3
983 1023 2
984 985 4
984 1024 3
985 986 2
985 1025 4
986 987 2
986 1026 1
987 988 3
987 1027 1
988 989 5
988 1028 2
989 990 1
989 1029 1
990 991 2
990 1030 3
991 992 2
991 1031 5
992 993 1
992 1032 5
993 994 5
993 1033 3
994 995 2
994 1034 3
995 996 3
995 1035 1
996 997 3
996 1036 2
997 998 4
997 1037 2
998 999 3
998 1038 4
999 1000 3
999 1039 2
1000 1040 1
1001 1002 5
1001 1041 4
1002 1003 2
1002 1042 4
1003 1004 3
1003 1043 3
1004 1005 2
1004 1044 4
1005 1006 3
1005 1045 3
1006 1007 5
1006 1046 1
1007 1008 4
1007 1047 3
1008 1009 2
1008 1048 3
1009 1010 2
1009 1049 2
1010 1011 1
1010 1050 3
1011 1012 2
1011 1051 4
1012 1013 3
1012 1052 4
1013 1014 5
1013 1053 5
1014 1015 4
1014 1054 3
1015 1016 3
1015 1055 2
1016 1017 5
1016 1056 2
1017 1018 1
1017 1057 4
1018 1019 4
1018 1058 2
1019 1020 5
1019 1059 3
1020 1021 1
1020 1060 4
1021 1022 4
1021 1061 3
1022 1023 4
1022 1062 2
1023 1024 2
1023 1063 1
1024 1025 1
1024 1064 4
1025 1026 5
1025 1065 3
1026 1027 2
1026 1066 3
1027 1028 3
1027 1067 4
1028 1029 3
1028 1068 1
1029 1030 5
1029 1069 2
1030 1031 1
1030 1070 2
1031 1032 3
1031 1071 1
1032 1033 4
1032 1072 3
1033 1034 4
1033 1073 4
1034 1035 5
1034 1074 1
1035 1036 2
1035 1075 4
1036 1037 3
1036 1076 5
1037 1038 3
1037 1077 3
1038 1039 3
1038 1078 5
1039 1040 3
1039 1079 1
1040 1080 4
1041 1042 4
1041 1081 4
1042 1043 3
1042 1082 3
1043 1044 3
1043 1083 5
1044 1045 5
1044 1084 3
1045 1046 1
1045 1085 2
1046 1047 5
1046 1086 5
1047 1048 2
1047 1087 5
1048 1049 1
1048 1088 1
1049 1050 2
1049 1089 2
1050 1051 2
1050 1090 2
1051 1052 5
1051 1091 1
1052 1053 3
1052 1092 4
1053 1054 5
1053 1093 4
1054 1055 1
1054 1094 3
1055 1056 1
1055 1095 3
1056 1057 2
1056 1096 4
1057 1058 2
1057 1097 1
1058 1059 1
1058 1098 5
1059 1060 2
1059 1099 4
1060 1061 5
1060 1100 5
1061 1062 3
1061 1101 1
1062 1063 1
1062 1102 3
1063 1064 3
1063 1103 1
1064 1065 3
1064 1104 5
1065 1066 1
1065 1105 5
1066 1067 4
1066 1106 5
1067 1068 1
1067 1107 3
1068 1069 4
1068 1108 3
1069 1070 5
1069 1109 3
1070 1071 2
1070 1110 3
1071 1072 1
1071 1111 1
1072 1073 5
1072 1112 2
1073 1074 4
1073 1113 2
1074 1075 5
1074 1114 1
1075 1076 3
1075 1115 1
1076 1077 1
1076 1116 1
1077 1078 5
1077 1117 2
1078 1079 4
1078 1118 4
1079 1080 4
1079 1119 2
1080 1120 4
1081 1082 2
1081 1121 4
1082 1083 1
1082 1122 1
1083 1084 2
1083 1123 3
1084 1085 1
1084 1124 3
1085 1086 4
1085 1125 5
1086 1087 1
1086 1126 5
1087 1088 2
1087 1127 4
1088 1089 2
1088 1128 1
1089 1090 2
1089 1129 1
1090 1091 5
1090 1130 2
1091 1092 4
1091 1131 5
1092 1093 2
1092 1132 1
1093 1094 3
1093 1133 5
1094 1095 2
1094 1134 1
1095 1096 4
1095 1135 1
1096 1097 4
1096 1136 2
1097 1098 2
1097 1137 5
1098 1099 4
1098 1138 4
1099 1100 5
1099 1139 4
1100 1101 2
1100 1140 3
1101 1102 5
1101 1141 1
1102 1103 2
1102 1142 2
1103 1104 4
1103 1143 2
1104 1105 5
1104 1144 4
1105 1106 1
1105 1145 1
1106 1107 1
1106 1146 1
1107 1108 3
1107 1147 5
1108 1109 3
1108 1148 4
1109 1110 3
1109 1149 2
1110 1111 4
1110 1150 5
1111 1112 3
1111 1151 4
1112 1113 1
1112 1152 1
1113 1114 1
1113 1153 5
1114 1115 4
1114 1154 5
1115 1116 1
1115 1155 3
1116 1117 1
1116 1156 5
1117 1118 2
1117 1157 4
1118 1119 4
1118 1158 1
1119 1120 4
1119 1159 3
1120 1160 4
1121 1122 1
1121 1161 2
1122 1123 1
1122 1162 1
1123 1124 3
1123 1163 2
1124 1125 3
1124 1164 1
1125 1126 4
1125 1165 4
1126 1127 2
1126 1166 3
1127 1128 5
1127 1167 4
1128 1129 1
1128 1168 1
1129 1130 3
1129 1169 4
1130 1131 3
1130 1170 5
1131 1132 4
1131 1171 4
1132 1133 3
1132 1172 3
1133 1134 5
1133 1173 1
1134 1135 4
1134 1174 4
1135 1136 5
1135 1175 5
1136 1137 5
1136 1176 5
1137 1138 3
1137 1177 5
1138 1139 4
1138 1178 1
1139 1140 5
1139 1179 1
1140 1141 1
1140 1180 4
1141 1142 2
1141 1181 1
1142 1143 2
1142 1182 3
1143 1144 2
1143 1183 3
1144 1145 4
1144 1184 4
1145 1146 5
1145 1185 3
1146 1147 2
1146 1186 2
1147 1148 1
1147 1187 1
1148 1149 1
1148 1188 3
1149 1150 1
1149 1189 1
1150 1151 3
1150 1190 3
1151 1152 1
1151 1191 4
1152 1153 2
1152 1192 4
1153 1154 2
1153 1193 1
1154 1155 1
1154 1194 3
1155 1156 1
1155 1195 4
1156 1157 3
1156 1196 2
1157 1158 4
1157 1197 5
1158 1159 1
1158 1198 1
1159 1160 4
1159 1199 5
1160 1200 1
1161 1162 5
1161 1201 3
1162 1163 2
1162 1202 5
1163 1164 4
1163 1203 3
1164 1165 1
1164 1204 1
1165 1166 5
1165 1205 5
1166 1167 3
1166 1206 3
1167 1168 4
1167 1207 5
1168 1169 2
1168 1208 4
1169 1170 1
1169 1209 3
1170 1171 4
1170 1210 2
1171 1172 5
1171 1211 3
1172 1173 1
1172 1212 3
1173 1174 3
1173 1213 5
1174 1175 1
1174 1214 1
1175 1176 4
1175 1215 1
1176 1177 3
1176 1216 4
1177 1178 5
1177 1217 5
1178 1179 1
1178 1218 4
1179 1180 2
1179 1219 1
1180 1181 3
1180 1220 3
1181 1182 1
1181 1221 2
1182 1183 5
1182 1222 3
1183 1184 3
1183 1223 1
1184 1185 1
1184 1224 3
1185 1186 5
1185 1225 2
1186 1187 2
1186 1226 5
1187 1188 2
1187 1227 4
1188 1189 1
1188 1228 5
1189 1190 5
1189 1229 1
1190 1191 4
1190 1230 2
1191 1192 1
1191 1231 4
1192 1193 1
1192 1232 4
1193 1194 2
1193 1233 2
1194 1195 4
1194 1234 5
1195 1196 5
1195 1235 5
1196 1197 2
1196 1236 5
1197 1198 2
1197 1237 1
1198 1199 5
1198 1238 1
1199 1200 4
1199 1239 3
1200 1240 5
1201 1202 3
1201 1241 2
1202 1203 2
1202 1242 3
1203 1204 5
1203 1243 2
1204 1205 1
1204 1244 4
1205 1206 4
1205 1245 2
1206 1207 2
1206 1246 5
1207 1208 1
1207 1247 3
1208 1209 2
1208 1248 2
1209 1210 5
1209 1249 5
1210 1211 5
1210 1250 2
1211 1212 3
1211 1251 1
1212 1213 5
1212 1252 5
1213 1214 3
1213 1253 5
1214 1215 5
1214 1254 2
1215 1216 2
1215 1255 4
1216 1217 1
1216 1256 2
1217 1218 5
1217 1257 3
1218 1219 5
1218 1258 2
1219 1220 4
1219 1259 1
1220 1221 5
1220 1260 3
1221 1222 5
1221 1261 3
1222 1223 3
1222 1262 3
1223 1224 2
1223 1263 5
1224 1225 5
1224 1264 5
1225 1226 5
1225 1265 5
1226 1227 4
1226 1266 4
1227 1228 1
1227 1267 1
1228 1229 1
1228 1268 5
1229 1230 3
1229 1269 2
1230 1231 4
1230 1270 4
1231 1232 2
1231 1271 4
1232 1233 2
1232 1272 1
1233 1234 3
1233 1273 2
1234 1235 5
1234 1274 2
1235 1236 1
1235 1275 5
1236 1237 5
1236 1276 2
1237 1238 5
1237 1277 3
1238 1239 5
1238 1278 4
1239 1240 3
1239 1279 5
1240 1280 4
1241 1242 5
1241 1281 4
1242 1243 3
1242 1282 5
1243 1244 1
1243 1283 3
1244 1245 4
1244 1284 3
1245 1246 5
1245 1285 1
1246 1247 2
1246 1286 4
1247 1248 2
1247 1287 2
1248 1249 5
1248 1288 3
1249 1250 2
1249 1289 3
1250 1251 3
1250 1290 5
1251 1252 3
1251 1291 5
1252 1253 3
1252 1292 4
1253 1254 3
1253 1293 1
1254 1255 5
1254 1294 5
1255 1256 1
1255 1295 2
1256 1257 1
1256 1296 5
1257 1258 3
1257 1297 1
1258 1259 5
1258 1298 1
1259 1260 5
1259 1299 3
1260 1261 2
1260 1300 3
1261 1262 4
1261 1301 1
1262 1263 1
1262 1302 2
1263 1264 4
1263 1303 5
1264 1265 4
1264 1304 4
1265 1266 2
1265 1305 3
1266 1267 4
1266 1306 4
1267 1268 5
1267 1307 1
1268 1269 5
1268 1308 1
1269 1270 1
1269 1309 1
1270 1271 5
1270 1310 4
1271 1272 1
1271 1311 1
1272 1273 3
1272 1312 3
1273 1274 3
1273 1313 2
1274 1275 5
1274 1314 2
1275 1276 4
1275 1315 2
1276 1277 5
1276 1316 2
1277 1278 2
1277 1317 1
1278 1279 4
1278 1318 2
1279 1280 3
1279 1319 2
1280 1320 5
1281 1282 2
1281 1321 2
1282 1283 1
1282 1322 1
1283 1284 4
1283 1323 4
1284 1285 1
1284 1324 3
1285 1286 4
1285 1325 1
1286 1287 4
1286 1326 3
1287 1288 5
1287 1327 4
1288 1289 1
1288 1328 1
1289 1290 1
1289 1329 3
1290 1291 1
1290 1330 3
1291 1292 2
1291 1331 5
1292 1293 5
1292 1332 4
1293 1294 5
1293 1333 4
1294 1295 4
1294 1334 5
1295 1296 3
1295 1335 2
1296 1297 5
1296 1336 5
1297 1298 2
1297 1337 4
1298 1299 4
1298 1338 5
1299 1300 1
1299 1339 2
1300 1301 2
1300 1340 2
1301 1302 3
1301 1341 3
1302 1303 5
1302 1342 4
1303 1304 5
1303 1343 3
1304 1305 4
1304 1344 1
1305 1306 5
1305 1345 3
1306 1307 2
1306 1346 1
1307 1308 4
1307 1347 2
1308 1309 2
1308 1348 4
1309 1310 1
1309 1349 2
1310 1311 2
1310 1350 3
1311 1312 1
1311 1351 1
1312 1313 1
1312 1352 4
1313 1314 4
1313 1353 1
1314 1315 3
1314 1354 1
1315 1316 4
1315 1355 4
1316 1317 2
1316 1356 1
1317 1318 2
1317 1357 5
1318 1319 4
1318 1358 1
1319 1320 2
1319 1359 3
1320 1360 4
1321 1322 3
1321 1361 2
1322 1323 1
1322 1362 2
1323 1324 3
1323 1363 4
1324 1325 5
1324 1364 4
1325 1326 2
1325 1365 2
1326 1327 4
1326 1366 3
1327 1328 4
1327 1367 5
1328 1329 5
1328 1368 2
1329 1330 1
1329 1369 4
1330 1331 2
1330 1370 2
1331 1332 4
1331 1371 2
1332 1333 2
1332 1372 3
1333 1334 3
1333 1373 1
1334 1335 3
1334 1374 1
1335 1336 1
1335 1375 2
1336 1337 2
1336 1376 3
1337 1338 1
1337 1377 2
1338 1339 1
1338 1378 3
1339 1340 4
1339 1379 5
1340 1341 5
1340 1380 3
1341 1342 4
1341 1381 1
1342 1343 5
1342 1382 5
1343 1344 2
1343 1383 5
1344 1345 3
1344 1384 3
1345 1346 3
1345 1385 4
1346 1347 5
1346 1386 4
1347 1348 5
1347 1387 3
1348 1349 2
1348 1388 5
1349 1350 4
1349 1389 2
1350 1351 4
1350 1390 4
1351 1352 1
1351 1391 4
1352 1353 5
1352 1392 5
1353 1354 4
1353 1393 5
1354 1355 1
1354 1394 5
1355 1356 3
1355 1395 3
1356 1357 2
1356 1396 3
1357 1358 3
1357 1397 1
1358 1359 1
1358 1398 2
1359 1360 1
1359 1399 2
1360 1400 4
1361 1362 1
1361 1401 2
1362 1363 3
1362 1402 3
1363 1364 3
1363 1403 4
1364 1365 5
1364 1404 2
1365 1366 5
1365 1405 3
1366 1367 3
1366 1406 1
1367 1368 1
1367 1407 2
1368 1369 1
1368 1408 1
1369 1370 2
1369 1409 5
1370 1371 5
1370 1410 2
1371 1372 3
1371 1411 1
1372 1373 4
1372 1412 1
1373 1374 1
1373 1413 2
1374 1375 4
1374 1414 1
1375 1376 2
1375 1415 2
1376 1377 3
1376 1416 2
1377 1378 2
1377 1417 4
1378 1379 4
1378 1418 5
1379 1380 2
1379 1419 2
1380 1381 4
1380 1420 2
1381 1382 2
1381 1421 4
1382 1383 2
1382 1422 2
1383 1384 1
1383 1423 1
1384 1385 2
1384 1424 2
1385 1386 3
1385 1425 5
1386 1387 5
1386 1426 2
1387 1388 3
1387 1427 3
1388 1389 1
1388 1428 1
1389 1390 5
1389 1429 4
1390 1391 1
1390 1430 4
1391 1392 5
1391 1431 2
1392 1393 3
1392 1432 2
1393 1394 1
1393 1433 3
1394 1395 4
1394 1434 3
1395 1396 3
1395 1435 4
1396 1397 4
1396 1436 1
1397 1398 3
1397 1437 3
1398 1399 5
1398 1438 1
1399 1400 5
1399 1439 3
1400 1440 3
1401 1402 4
1401 1441 1
1402 1403 4
1402 1442 1
1403 1404 3
1403 1443 1
1404 1405 1
1404 1444 4
1405 1406 3
1405 1445 5
1406 1407 1
1406 1446 1
1407 1408 3
1407 1447 1
1408 1409 4
1408 1448 4
1409 1410 2
1409 1449 2
1410 1411 1
1410 1450 3
1411 1412 4
1411 1451 1
1412 1413 4
1412 1452 1
1413 1414 2
1413 1453 5
1414 1415 4
1414 1454 3
1415 1416 5
1415 1455 2
1416 1417 5
1416 1456 1
1417 1418 5
1417 1457 1
1418 1419 5
1418 1458 3
1419 1420 2
1419 1459 4
1420 1421 3
1420 1460 3
1421 1422 4
1421 1461 1
1422 1423 4
1422 1462 5
1423 1424 1
1423 1463 5
1424 1425 4
1424 1464 4
1425 1426 3
1425 1465 3
1426 1427 4
1426 1466 4
1427 1428 4
1427 1467 1
1428 1429 2
1428 1468 1
1429 1430 1
1429 1469 5
1430 1431 1
1430 1470 3
1431 1432 3
1431 1471 4
1432 1433 5
1432 1472 5
1433 1434 1
1433 1473 2
1434 1435 3
1434 1474 3
1435 1436 2
1435 1475 1
1436 1437 3
1436 1476 3
1437 1438 1
1437 1477 3
1438 1439 2
1438 1478 5
1439 1440 1
1439 1479 5
1440 1480 1
1441 1442 1
1441 1481 3
1442 1443 1
1442 1482 5
1443 1444 3
1443 1483 2
1444 1445 2
1444 1484 4
1445 1446 2
1445 1485 5
1446 1447 1
1446 1486 1
1447 1448 5
1447 1487 4
1448 1449 2
1448 1488 3
1449 1450 4
1449 1489 1
1450 1451 5
1450 1490 2
1451 1452 4
1451 1491 4
1452 1453 3
1452 1492 4
1453 1454 5
1453 1493 4
1454 1455 1
1454 1494 4
1455 1456 2
1455 1495 5
1456 1457 4
1456 1496 4
1457 1458 5
1457 1497 3
1458 1459 5
1458 1498 4
1459 1460 5
1459 1499 1
1460 1461 1
1460 1500 4
1461 1462 5
1461 1501 2
1462 1463 2
1462 1502 3
1463 1464 2
1463 1503 2
1464 1465 3
1464 1504 2
1465 1466 4
1465 1505 3
1466 1467 4
1466 1506 1
1467 1468 1
1467 1507 1
1468 1469 4
1468 1508 3
1469 1470 2
1469 1509 5
1470 1471 5
1470 1510 2
1471 1472 2
1471 1511 3
1472 1473 5
1472 1512 3
1473 1474 1
1473 1513 4
1474 1475 2
1474 1514 3
1475 1476 3
1475 1515 1
1476 1477 5
1476 1516 4
1477 1478 5
1477 1517 1
1478 1479 4
1478 1518 5
1479 1480 5
1479 1519 3
1480 1520 5
1481 1482 1
1481 1521 3
1482 1483 1
1482 1522 3
1483 1484 2
1483 1523 2
1484 1485 2
1484 1524 2
1485 1486 3
1485 1525 3
1486 1487 1
1486 1526 3
1487 1488 2
1487 1527 5
1488 1489 2
1488 1528 2
1489 1490 5
1489 1529 5
1490 1491 5
1490 1530 2
1491 1492 4
1491 1531 5
1492 1493 2
1492 1532 5
1493 1494 5
1493 1533 2
1494 1495 3
1494 1534 3
1495 1496 4
1495 1535 3
1496 1497 4
1496 1536 1
1497 1498 2
1497 1537 3
1498 1499 1
1498 1538 1
1499 1500 2
1499 1539 2
1500 1501 1
1500 1540 4
1501 1502 3
1501 1541 5
1502 1503 3
1502 1542 4
1503 1504 4
1503 1543 1
1504 1505 2
1504 1544 1
1505 1506 3
1505 1545 5
1506 1507 2
1506 1546 5
1507 1508 4
1507 1547 2
1508 1509 3
1508 1548 2
1509 1510 5
1509 1549 1
1510 1511 5
1510 1550 3
1511 1512 2
1511 1551 1
1512 1513 2
1512 1552 5
1513 1514 5
1513 1553 3
1514 1515 3
1514 1554 1
1515 1516 3
1515 1555 3
1516 1517 3
1516 1556 3
1517 1518 4
1517 1557 1
1518 1519 5
1518 1558 3
1519 1520 1
1519 1559 5
1520 1560 2
1521 1522 1
1521 1561 2
1522 1523 4
1522 1562 4
1523 1524 3
1523 1563 5
1524 1525 5
1524 1564 3
1525 1526 5
1525 1565 3
1526 1527 4
1526 1566 1
1527 1528 3
1527 1567 4
1528 1529 2
1528 1568 1
1529 1530 2
1529 1569 3
1530 1531 1
1530 1570 4
1531 1532 4
1531 1571 1
1532 1533 5
1532 1572 2
1533 1534 4
1533 1573 5
1534 1535 4
1534 1574 5
1535 1536 5
1535 1575 2
1536 1537 4
1536 1576 3
1537 1538 4
1537 1577 3
1538 1539 1
1538 1578 4
1539 1540 3
1539 1579 4
1540 1541 4
1540 1580 3
1541 1542 4
1541 1581 5
1542 1543 4
1542 1582 3
1543 1544 2
1543 1583 2
1544 1545 5
1544 1584 3
1545 1546 5
1545 1585 2
1546 1547 3
1546 1586 2
1547 1548 4
1547 1587 2
1548 1549 4
1548 1588 2
1549 1550 4
1549 1589 5
1550 1551 2
1550 1590 5
1551 1552 1
1551 1591 4
1552 1553 4
1552 1592 2
1553 1554 5
1553 1593 3
1554 1555 1
1554 1594 4
1555 1556 2
1555 1595 5
1556 1557 2
1556 1596 4
1557 1558 2
1557 1597 4
1558 1559 5
1558 1598 1
1559 1560 3
1559 1599 1
1560 1600 3
1561 1562 1
1562 1563 2
1563 1564 1
1564 1565 4
1565 1566 1
1566 1567 3
1567 1568 1
1568 1569 5
1569 1570 1
1570 1571 5
1571 1572 5
1572 1573 5
1573 1574 1
1574 1575 4
1575 1576 3
1576 1577 3
1577 1578 2
1578 1579 3
1579 1580 1
1580 1581 4
1581 1582 1
1582 1583 2
1583 1584 3
1584 1585 3
1585 1586 5
1586 1587 2
1587 1588 4
1588 1589 3
1589 1590 4
1590 1591 3
1591 1592 1
1592 1593 3
1593 1594 4
1594 1595 4
1595 1596 3
1596 1597 4
1597 1598 3
1598 1599 1
1599 1600 2
